p cnf 750
-11 -235
-12 -238
-13 -241
-14 -244
-15 -247
-16 -250
-17 -253
-18 -256
-19 -259
-20 -262
-21 263
-22 264
-23 265
-24 266
-25 267
-26 268
-27 269
-28 -12
-28 -13
12 13 28
-29 -14
-29 -15
14 15 29
-30 -16
-30 -17
16 17 30
-31 -18
-31 -19
18 19 31
-32 -20
-32 -21
20 21 32
-33 -22
-33 -23
22 23 33
-34 -24
-34 -25
24 25 34
-35 -26
-35 -27
26 27 35
-36 28
-36 29
-28 -29 36
-37 30
-37 31
-30 -31 37
-38 32
-38 33
-32 -33 38
-39 34
-39 35
-34 -35 39
-40 36
-40 37
-36 -37 40
-41 38
-41 39
-38 -39 41
-42 40
-42 41
-40 -41 42
-43 -11
-43 12
11 -12 43
-44 11
-44 -12
-11 12 44
-45 -43
-45 -44
43 44 45
-46 11
-46 12
-11 -12 46
-47 -11
-47 -45
11 45 47
-48 11
-48 45
-11 -45 48
-49 -47
-49 -48
47 48 49
-50 11
-50 -45
-11 45 50
-51 -46
-51 -50
46 50 51
-52 -12
-52 13
12 -13 52
-53 12
-53 -13
-12 13 53
-54 -52
-54 -53
52 53 54
-55 12
-55 13
-12 -13 55
-56 51
-56 -54
-51 54 56
-57 -51
-57 54
51 -54 57
-58 -56
-58 -57
56 57 58
-59 -51
-59 -54
51 54 59
-60 -55
-60 -59
55 59 60
-61 -13
-61 14
13 -14 61
-62 13
-62 -14
-13 14 62
-63 -61
-63 -62
61 62 63
-64 13
-64 14
-13 -14 64
-65 60
-65 -63
-60 63 65
-66 -60
-66 63
60 -63 66
-67 -65
-67 -66
65 66 67
-68 -60
-68 -63
60 63 68
-69 -64
-69 -68
64 68 69
-70 -14
-70 15
14 -15 70
-71 14
-71 -15
-14 15 71
-72 -70
-72 -71
70 71 72
-73 14
-73 15
-14 -15 73
-74 69
-74 -72
-69 72 74
-75 -69
-75 72
69 -72 75
-76 -74
-76 -75
74 75 76
-77 -69
-77 -72
69 72 77
-78 -73
-78 -77
73 77 78
-79 -15
-79 16
15 -16 79
-80 15
-80 -16
-15 16 80
-81 -79
-81 -80
79 80 81
-82 15
-82 16
-15 -16 82
-83 78
-83 -81
-78 81 83
-84 -78
-84 81
78 -81 84
-85 -83
-85 -84
83 84 85
-86 -78
-86 -81
78 81 86
-87 -82
-87 -86
82 86 87
-88 -16
-88 17
16 -17 88
-89 16
-89 -17
-16 17 89
-90 -88
-90 -89
88 89 90
-91 16
-91 17
-16 -17 91
-92 87
-92 -90
-87 90 92
-93 -87
-93 90
87 -90 93
-94 -92
-94 -93
92 93 94
-95 -87
-95 -90
87 90 95
-96 -91
-96 -95
91 95 96
-97 -17
-97 18
17 -18 97
-98 17
-98 -18
-17 18 98
-99 -97
-99 -98
97 98 99
-100 17
-100 18
-17 -18 100
-101 96
-101 -99
-96 99 101
-102 -96
-102 99
96 -99 102
-103 -101
-103 -102
101 102 103
-104 -96
-104 -99
96 99 104
-105 -100
-105 -104
100 104 105
-106 -18
-106 19
18 -19 106
-107 18
-107 -19
-18 19 107
-108 -106
-108 -107
106 107 108
-109 18
-109 19
-18 -19 109
-110 105
-110 -108
-105 108 110
-111 -105
-111 108
105 -108 111
-112 -110
-112 -111
110 111 112
-113 -105
-113 -108
105 108 113
-114 -109
-114 -113
109 113 114
-115 -19
-115 20
19 -20 115
-116 19
-116 -20
-19 20 116
-117 -115
-117 -116
115 116 117
-118 19
-118 20
-19 -20 118
-119 114
-119 -117
-114 117 119
-120 -114
-120 117
114 -117 120
-121 -119
-121 -120
119 120 121
-122 -114
-122 -117
114 117 122
-123 -118
-123 -122
118 122 123
-124 -20
-124 21
20 -21 124
-125 20
-125 -21
-20 21 125
-126 -124
-126 -125
124 125 126
-127 20
-127 21
-20 -21 127
-128 123
-128 -126
-123 126 128
-129 -123
-129 126
123 -126 129
-130 -128
-130 -129
128 129 130
-131 -123
-131 -126
123 126 131
-132 -127
-132 -131
127 131 132
-133 -21
-133 22
21 -22 133
-134 21
-134 -22
-21 22 134
-135 -133
-135 -134
133 134 135
-136 21
-136 22
-21 -22 136
-137 132
-137 -135
-132 135 137
-138 -132
-138 135
132 -135 138
-139 -137
-139 -138
137 138 139
-140 -132
-140 -135
132 135 140
-141 -136
-141 -140
136 140 141
-142 -22
-142 23
22 -23 142
-143 22
-143 -23
-22 23 143
-144 -142
-144 -143
142 143 144
-145 22
-145 23
-22 -23 145
-146 141
-146 -144
-141 144 146
-147 -141
-147 144
141 -144 147
-148 -146
-148 -147
146 147 148
-149 -141
-149 -144
141 144 149
-150 -145
-150 -149
145 149 150
-151 -23
-151 24
23 -24 151
-152 23
-152 -24
-23 24 152
-153 -151
-153 -152
151 152 153
-154 23
-154 24
-23 -24 154
-155 150
-155 -153
-150 153 155
-156 -150
-156 153
150 -153 156
-157 -155
-157 -156
155 156 157
-158 -150
-158 -153
150 153 158
-159 -154
-159 -158
154 158 159
-160 -24
-160 25
24 -25 160
-161 24
-161 -25
-24 25 161
-162 -160
-162 -161
160 161 162
-163 24
-163 25
-24 -25 163
-164 159
-164 -162
-159 162 164
-165 -159
-165 162
159 -162 165
-166 -164
-166 -165
164 165 166
-167 -159
-167 -162
159 162 167
-168 -163
-168 -167
163 167 168
-169 -25
-169 26
25 -26 169
-170 25
-170 -26
-25 26 170
-171 -169
-171 -170
169 170 171
-172 25
-172 26
-25 -26 172
-173 168
-173 -171
-168 171 173
-174 -168
-174 171
168 -171 174
-175 -173
-175 -174
173 174 175
-176 -168
-176 -171
168 171 176
-177 -172
-177 -176
172 176 177
-178 -26
-178 27
26 -27 178
-179 26
-179 -27
-26 27 179
-180 -178
-180 -179
178 179 180
-181 26
-181 27
-26 -27 181
-182 177
-182 -180
-177 180 182
-183 -177
-183 180
177 -180 183
-184 -182
-184 -183
182 183 184
-185 -177
-185 -180
177 180 185
-186 -181
-186 -185
181 185 186
-187 11
-187 -49
-11 49 187
-188 -11
-188 13
11 -13 188
-189 -187
-189 -188
187 188 189
-190 11
-190 -58
-11 58 190
-191 -11
-191 14
11 -14 191
-192 -190
-192 -191
190 191 192
-193 11
-193 -67
-11 67 193
-194 -11
-194 15
11 -15 194
-195 -193
-195 -194
193 194 195
-196 11
-196 -76
-11 76 196
-197 -11
-197 16
11 -16 197
-198 -196
-198 -197
196 197 198
-199 11
-199 -85
-11 85 199
-200 -11
-200 17
11 -17 200
-201 -199
-201 -200
199 200 201
-202 11
-202 -94
-11 94 202
-203 -11
-203 18
11 -18 203
-204 -202
-204 -203
202 203 204
-205 11
-205 -103
-11 103 205
-206 -11
-206 19
11 -19 206
-207 -205
-207 -206
205 206 207
-208 11
-208 -112
-11 112 208
-209 -11
-209 20
11 -20 209
-210 -208
-210 -209
208 209 210
-211 11
-211 -121
-11 121 211
-212 -11
-212 21
11 -21 212
-213 -211
-213 -212
211 212 213
-214 11
-214 -130
-11 130 214
-215 -11
-215 22
11 -22 215
-216 -214
-216 -215
214 215 216
-217 11
-217 -139
-11 139 217
-218 -11
-218 23
11 -23 218
-219 -217
-219 -218
217 218 219
-220 11
-220 -148
-11 148 220
-221 -11
-221 24
11 -24 221
-222 -220
-222 -221
220 221 222
-223 11
-223 -157
-11 157 223
-224 -11
-224 25
11 -25 224
-225 -223
-225 -224
223 224 225
-226 11
-226 -166
-11 166 226
-227 -11
-227 26
11 -26 227
-228 -226
-228 -227
226 227 228
-229 11
-229 -175
-11 175 229
-230 -11
-230 27
11 -27 230
-231 -229
-231 -230
229 230 231
-232 11
-232 -184
-11 184 232
-233 1
-233 42
-1 -42 233
-234 -42
-234 43
42 -43 234
-235 -233
-235 -234
233 234 235
-236 2
-236 42
-2 -42 236
-237 -42
-237 -189
42 189 237
-238 -236
-238 -237
236 237 238
-239 3
-239 42
-3 -42 239
-240 -42
-240 -192
42 192 240
-241 -239
-241 -240
239 240 241
-242 4
-242 42
-4 -42 242
-243 -42
-243 -195
42 195 243
-244 -242
-244 -243
242 243 244
-245 5
-245 42
-5 -42 245
-246 -42
-246 -198
42 198 246
-247 -245
-247 -246
245 246 247
-248 6
-248 42
-6 -42 248
-249 -42
-249 -201
42 201 249
-250 -248
-250 -249
248 249 250
-251 7
-251 42
-7 -42 251
-252 -42
-252 -204
42 204 252
-253 -251
-253 -252
251 252 253
-254 8
-254 42
-8 -42 254
-255 -42
-255 -207
42 207 255
-256 -254
-256 -255
254 255 256
-257 9
-257 42
-9 -42 257
-258 -42
-258 -210
42 210 258
-259 -257
-259 -258
257 258 259
-260 10
-260 42
-10 -42 260
-261 -42
-261 -213
42 213 261
-262 -260
-262 -261
260 261 262
-263 -42
-263 -216
42 216 263
-264 -42
-264 -219
42 219 264
-265 -42
-265 -222
42 222 265
-266 -42
-266 -225
42 225 266
-267 -42
-267 -228
42 228 267
-268 -42
-268 -231
42 231 268
-269 -42
-269 232
42 -232 269
-270 -27
-270 186
27 -186 270
-271 11
-271 -270
-11 270 271
271
